100
32
3
11
20
2
23
15
14
9
20
2
12
16
13
15
5
9
29
31
10
30
9
19
10
30
9
28
13
18
6
2
28
1
19
25
22
19
1
5
27
2
24
1
4
12
30
26
20
11
20
24
32
3
18
13
20
20
10
18
1
1
11
3
29
19
17
23
18
17
9
17
1
10
31
16
8
5
30
11
27
22
29
28
4
21
17
21
23
13
27
19
28
1
21
2
9
26
4
7
9
17